NAME 
ROWS
 N  OBJ
 L  R0      
 L  R1      
 E  R2      
 E  R3      
 E  R4      
 E  R5      
 E  R6      
 E  R7      
 E  R8      
 E  R9      
 E  R10     
 E  R11     
 E  R12     
 E  R13     
 E  R14     
 E  R15     
 E  R16     
 E  R17     
 E  R18     
 E  R19     
 E  R20     
 E  R21     
 E  R22     
 E  R23     
 E  R24     
 E  R25     
 E  R26     
COLUMNS
    MARKER    'MARKER'                 'INTORG'
    I0(13)    OBJ       -13
    I0(13)    R0        -181
    I0(13)    R1        79
    I0(13)    R2        1
    I0(13)    R4        14
    I0(13)    R6        2
    I0(13)    R7        2
    I0(13)    R9        -1
    I0(13)    R12       2
    I0(13)    R13       2
    I0(13)    R14       9
    I0(13)    R15       3
    I0(13)    R16       2
    I0(13)    R26       1
    I1(9)     OBJ       102
    I1(9)     R0        11
    I1(9)     R1        23
    I1(9)     R4        16
    I1(9)     R6        16
    I1(9)     R11       13
    I1(9)     R14       13
    I1(9)     R15       18
    I1(9)     R16       9
    I1(9)     R26       1
    I2(9)     OBJ       -191
    I2(9)     R0        -124
    I2(9)     R1        -186
    I2(9)     R2        9
    I2(9)     R3        5
    I2(9)     R4        14
    I2(9)     R11       1
    I2(9)     R12       17
    I2(9)     R14       14
    I2(9)     R26       1
    I3(14)    OBJ       16
    I3(14)    R0        -106
    I3(14)    R1        -92
    I3(14)    R2        12
    I3(14)    R3        19
    I3(14)    R5        10
    I3(14)    R8        5
    I3(14)    R10       3
    I3(14)    R11       6
    I3(14)    R12       16
    I3(14)    R13       15
    I3(14)    R14       19
    I3(14)    R15       4
    I3(14)    R16       12
    I3(14)    R26       1
    I4(12)    OBJ       192
    I4(12)    R0        19
    I4(12)    R1        -28
    I4(12)    R2        7
    I4(12)    R4        12
    I4(12)    R5        13
    I4(12)    R6        17
    I4(12)    R8        -1
    I4(12)    R10       17
    I4(12)    R14       19
    I4(12)    R15       5
    I4(12)    R16       4
    I4(12)    R26       1
    I5(11)    OBJ       101
    I5(11)    R0        60
    I5(11)    R1        -198
    I5(11)    R3        7
    I5(11)    R4        17
    I5(11)    R6        4
    I5(11)    R9        2
    I5(11)    R11       3
    I5(11)    R12       18
    I5(11)    R14       16
    I5(11)    R16       13
    I5(11)    R26       1
    I6(12)    OBJ       -107
    I6(12)    R0        -65
    I6(12)    R1        169
    I6(12)    R4        12
    I6(12)    R5        15
    I6(12)    R7        19
    I6(12)    R8        3
    I6(12)    R9        12
    I6(12)    R11       17
    I6(12)    R12       9
    I6(12)    R14       13
    I6(12)    R15       7
    I6(12)    R26       1
    I7(11)    OBJ       75
    I7(11)    R0        -125
    I7(11)    R1        118
    I7(11)    R2        8
    I7(11)    R4        5
    I7(11)    R5        4
    I7(11)    R7        18
    I7(11)    R8        18
    I7(11)    R10       5
    I7(11)    R12       11
    I7(11)    R14       4
    I7(11)    R26       1
    I8(10)    OBJ       -97
    I8(10)    R0        18
    I8(10)    R1        -13
    I8(10)    R2        17
    I8(10)    R4        10
    I8(10)    R9        13
    I8(10)    R10       -1
    I8(10)    R11       4
    I8(10)    R13       18
    I8(10)    R15       7
    I8(10)    R26       1
    I9(12)    OBJ       86
    I9(12)    R0        -28
    I9(12)    R1        13
    I9(12)    R2        6
    I9(12)    R3        5
    I9(12)    R4        3
    I9(12)    R5        11
    I9(12)    R7        7
    I9(12)    R8        12
    I9(12)    R13       2
    I9(12)    R14       2
    I9(12)    R15       12
    I9(12)    R26       1
    I10(8)    OBJ       166
    I10(8)    R0        101
    I10(8)    R1        183
    I10(8)    R4        15
    I10(8)    R11       9
    I10(8)    R12       4
    I10(8)    R15       11
    I10(8)    R16       1
    I10(8)    R26       1
    I11(10)   OBJ       111
    I11(10)   R0        -75
    I11(10)   R1        76
    I11(10)   R3        4
    I11(10)   R4        4
    I11(10)   R10       -1
    I11(10)   R11       13
    I11(10)   R14       11
    I11(10)   R15       14
    I11(10)   R16       7
    I11(10)   R26       1
    I12(5)    OBJ       72
    I12(5)    R0        -105
    I12(5)    R1        173
    I12(5)    R7        10
    I12(5)    R10       19
    I12(5)    R26       1
    I13(9)    OBJ       89
    I13(9)    R0        13
    I13(9)    R1        174
    I13(9)    R5        11
    I13(9)    R8        1
    I13(9)    R10       4
    I13(9)    R12       6
    I13(9)    R14       19
    I13(9)    R16       19
    I13(9)    R26       1
    I14(13)   OBJ       -145
    I14(13)   R0        -71
    I14(13)   R1        -86
    I14(13)   R2        12
    I14(13)   R3        15
    I14(13)   R5        17
    I14(13)   R7        5
    I14(13)   R8        17
    I14(13)   R10       2
    I14(13)   R13       15
    I14(13)   R14       9
    I14(13)   R15       11
    I14(13)   R16       3
    I14(13)   R26       1
    MARKER    'MARKER'                 'INTEND'
    C15(18)   OBJ       4
    C15(18)   R0        -9
    C15(18)   R1        2
    C15(18)   R2        4
    C15(18)   R3        17
    C15(18)   R5        16
    C15(18)   R6        6
    C15(18)   R7        16
    C15(18)   R8        12
    C15(18)   R10       16
    C15(18)   R12       8
    C15(18)   R13       3
    C15(18)   R14       2
    C15(18)   R17       3
    C15(18)   R21       14
    C15(18)   R22       15
    C15(18)   R23       14
    C15(18)   R24       6
    C15(18)   R25       1
    C16(14)   OBJ       4
    C16(14)   R0        4
    C16(14)   R1        -3
    C16(14)   R3        12
    C16(14)   R4        19
    C16(14)   R5        8
    C16(14)   R10       16
    C16(14)   R11       13
    C16(14)   R13       10
    C16(14)   R14       13
    C16(14)   R16       7
    C16(14)   R19       15
    C16(14)   R20       12
    C16(14)   R22       11
    C16(14)   R25       8
    C17(11)   OBJ       4
    C17(11)   R0        1
    C17(11)   R1        -5
    C17(11)   R4        9
    C17(11)   R5        15
    C17(11)   R11       16
    C17(11)   R13       17
    C17(11)   R15       19
    C17(11)   R16       17
    C17(11)   R17       8
    C17(11)   R21       3
    C17(11)   R25       10
    C18(17)   OBJ       -6
    C18(17)   R0        2
    C18(17)   R1        -9
    C18(17)   R6        11
    C18(17)   R7        10
    C18(17)   R8        8
    C18(17)   R10       2
    C18(17)   R11       12
    C18(17)   R13       8
    C18(17)   R15       15
    C18(17)   R16       15
    C18(17)   R17       13
    C18(17)   R19       13
    C18(17)   R21       5
    C18(17)   R22       10
    C18(17)   R23       10
    C18(17)   R24       5
    C18(17)   R25       4
    C19(15)   OBJ       -5
    C19(15)   R0        -5
    C19(15)   R1        -1
    C19(15)   R2        17
    C19(15)   R3        1
    C19(15)   R4        19
    C19(15)   R6        12
    C19(15)   R9        1
    C19(15)   R10       2
    C19(15)   R12       12
    C19(15)   R15       16
    C19(15)   R17       -1
    C19(15)   R19       9
    C19(15)   R21       6
    C19(15)   R24       5
    C19(15)   R25       19
    C20(14)   OBJ       -2
    C20(14)   R0        2
    C20(14)   R1        -10
    C20(14)   R3        12
    C20(14)   R4        18
    C20(14)   R8        15
    C20(14)   R12       8
    C20(14)   R13       8
    C20(14)   R14       17
    C20(14)   R16       14
    C20(14)   R17       8
    C20(14)   R18       15
    C20(14)   R19       9
    C20(14)   R20       17
    C20(14)   R25       17
    C21(11)   OBJ       -10
    C21(11)   R0        -2
    C21(11)   R1        -4
    C21(11)   R6        15
    C21(11)   R7        14
    C21(11)   R10       15
    C21(11)   R11       -1
    C21(11)   R12       7
    C21(11)   R15       13
    C21(11)   R16       4
    C21(11)   R19       -1
    C21(11)   R25       16
    C22(10)   OBJ       9
    C22(10)   R0        8
    C22(10)   R1        -7
    C22(10)   R6        11
    C22(10)   R8        19
    C22(10)   R10       8
    C22(10)   R12       11
    C22(10)   R14       6
    C22(10)   R17       4
    C22(10)   R18       3
    C22(10)   R23       14
    C23(16)   OBJ       7
    C23(16)   R0        7
    C23(16)   R1        -1
    C23(16)   R2        11
    C23(16)   R4        10
    C23(16)   R5        1
    C23(16)   R6        13
    C23(16)   R8        1
    C23(16)   R9        17
    C23(16)   R12       18
    C23(16)   R14       14
    C23(16)   R15       7
    C23(16)   R17       14
    C23(16)   R21       2
    C23(16)   R22       13
    C23(16)   R23       18
    C23(16)   R25       2
    C24(16)   OBJ       9
    C24(16)   R0        1
    C24(16)   R1        -5
    C24(16)   R2        3
    C24(16)   R3        4
    C24(16)   R4        18
    C24(16)   R5        4
    C24(16)   R7        19
    C24(16)   R8        6
    C24(16)   R9        2
    C24(16)   R11       19
    C24(16)   R12       3
    C24(16)   R13       8
    C24(16)   R14       9
    C24(16)   R15       19
    C24(16)   R16       12
    C24(16)   R20       6
    C25(1)    R2        1
    C26(1)    R3        1
    C27(1)    R4        1
    C28(1)    R5        1
    C29(1)    R6        1
    C30(1)    R7        1
    C31(1)    R8        1
    C32(1)    R9        1
    C33(1)    R10       1
    C34(1)    R11       1
    C35(1)    R12       1
    C36(1)    R13       1
    C37(1)    R14       1
    C38(1)    R15       1
    C39(1)    R16       1
    C40(1)    R17       1
    C41(1)    R18       1
    C42(1)    R19       1
    C43(1)    R20       1
    C44(1)    R21       1
    C45(1)    R22       1
    C46(1)    R23       1
    C47(1)    R24       1
    C48(1)    R25       1
    C49(1)    R26       1
RHS
    RHS1      R0        -4.5744343891402713e+02
    RHS1      R1        -3.8647511312217193e+02
    RHS1      R2        55
    RHS1      R3        52
    RHS1      R4        70
    RHS1      R5        79
    RHS1      R6        80
    RHS1      R7        90
    RHS1      R8        54
    RHS1      R9        52
    RHS1      R10       76
    RHS1      R11       64
    RHS1      R12       64
    RHS1      R13       92
    RHS1      R14       67
    RHS1      R15       51
    RHS1      R16       95
    RHS1      R17       75
    RHS1      R18       98
    RHS1      R19       86
    RHS1      R20       83
    RHS1      R21       85
    RHS1      R22       57
    RHS1      R23       72
    RHS1      R24       97
    RHS1      R25       66
    RHS1      R26       5
BOUNDS
 UP BND1      I0(13)    2
 UP BND1      I1(9)     2
 UP BND1      I2(9)     2
 UP BND1      I3(14)    2
 UP BND1      I4(12)    2
 UP BND1      I5(11)    2
 UP BND1      I6(12)    2
 UP BND1      I7(11)    2
 UP BND1      I8(10)    2
 UP BND1      I9(12)    2
 UP BND1      I10(8)    2
 UP BND1      I11(10)   2
 UP BND1      I12(5)    2
 UP BND1      I13(9)    2
 UP BND1      I14(13)   2
ENDATA
